NAME : in_house_8_5
TYPE : TSP
DIMENSION : 8
EDGE_WEIGHT_TYPE : EXPLICIT
EDGE_WEIGHT_FORMAT : UPPER_ROW
COMMENT : INVERSION_SHIFT=8
EDGE_WEIGHT_SECTION
28
58
34
55
13
59
40
48
12
21
35
38
17
24
54
10
59
32
50
49
10
58
21
26
52
35
12
47
